30
42
5
65
40
76
31
18
0 1
0 5
0 25
0 28
1 4
1 5
1 17
2 8
2 12
2 20
2 21
2 26
3 8
3 17
3 23
4 11
4 20
5 18
5 28
6 8
6 25
6 27
6 28
7 13
7 15
8 26
9 18
9 29
11 21
12 23
12 28
15 16
15 19
15 20
16 21
16 28
17 21
21 26
21 28
22 25
23 24
23 27
5 8 24 9 22 3 14
0 2 17 15 26 6 1
12 21 16 13 18 7 4
10 19 25 27 20 11 23
28 29
